Copyright (C) 2013-2015, Filipe Brandao
Build (method = -2)
  #dp: 833
  Step-3' Graph: 32 vertices and 178 arcs (0.00s)
  Step-4' Graph: 28 vertices and 170 arcs (0.00s)
  #V4/#V3 = 0.88
  #A4/#A3 = 0.96
Ready! (0.00s)
Optimize a model with 96 rows, 171 columns and 461 nonzeros
Found heuristic solution: objective 174
Presolve removed 59 rows and 75 columns
Presolve time: 0.00s
Presolved: 37 rows, 96 columns, 240 nonzeros
Variable types: 0 continuous, 96 integer (9 binary)
Optimize a model with 37 rows, 96 columns and 240 nonzeros
Presolve removed 1 rows and 1 columns
Presolved: 36 rows, 95 columns, 238 nonzeros

Root barrier log...

Ordering time: 0.00s

Barrier statistics:
 AA' NZ     : 9.400e+01
 Factor NZ  : 4.260e+02
 Factor Ops : 6.366e+03 (less than 1 second per iteration)
 Threads    : 1

                  Objective                Residual
Iter       Primal          Dual         Primal    Dual     Compl     Time
   0   7.90168674e+02 -9.13545658e+02  6.78e+02 1.11e-16  3.27e+01     0s
   1   2.93377566e+02 -2.05291992e+02  7.10e+01 6.66e-16  4.38e+00     0s
   2   1.85803683e+02  9.27484501e+01  3.56e-01 1.11e-15  4.58e-01     0s
   3   1.65031515e+02  1.28542272e+02  7.40e-04 4.44e-16  1.78e-01     0s
   4   1.53177677e+02  1.44840597e+02  1.80e-04 3.33e-16  4.07e-02     0s
   5   1.49028788e+02  1.47592359e+02  3.88e-05 3.33e-16  7.01e-03     0s
   6   1.48053152e+02  1.47973248e+02  1.77e-06 6.66e-16  3.90e-04     0s
   7   1.48000015e+02  1.47999991e+02  2.88e-10 3.59e-16  1.18e-07     0s
   8   1.48000000e+02  1.48000000e+02  6.04e-14 5.55e-16  1.18e-10     0s

Barrier solved model in 8 iterations and 0.00 seconds
Optimal objective 1.48000000e+02


Root relaxation: objective 1.480000e+02, 28 iterations, 0.00 seconds

    Nodes    |    Current Node    |     Objective Bounds      |     Work
 Expl Unexpl |  Obj  Depth IntInf | Incumbent    BestBd   Gap | It/Node Time

*    0     0               0     148.0000000  148.00000  0.00%     -    0s

Explored 0 nodes (28 simplex iterations) in 0.00 seconds
Thread count was 1 (of 4 available processors)

Optimal solution found (tolerance 0.00e+00)
Best objective 1.480000000000e+02, best bound 1.480000000000e+02, gap 0.0%
Preprocessing time: 0.00 seconds
Gurobi run time: 0.00 seconds
Total run time: 0.00 seconds
Objective: 148
Solution:
2 x [i=1]
4 x [i=2]
2 x [i=3]
2 x [i=4]
1 x [i=5]
4 x [i=6]
3 x [i=7]
8 x [i=8]
4 x [i=9]
2 x [i=10]
2 x [i=11]
2 x [i=12]
6 x [i=13]
2 x [i=14]
3 x [i=15]
2 x [i=16]
6 x [i=17]
5 x [i=18]
4 x [i=19]
1 x [i=20]
1 x [i=21]
2 x [i=22]
3 x [i=23]
2 x [i=24]
3 x [i=25]
4 x [i=26]
6 x [i=27]
2 x [i=28]
1 x [i=29]
4 x [i=30]
1 x [i=30, i=68]
1 x [i=31]
2 x [i=31, i=67]
3 x [i=32, i=66]
2 x [i=33]
3 x [i=34, i=64]
2 x [i=34, i=65]
1 x [i=35, i=63]
1 x [i=36, i=63]
1 x [i=37, i=61]
2 x [i=37, i=62]
1 x [i=37, i=65]
3 x [i=38, i=60]
1 x [i=39, i=60]
4 x [i=40, i=59]
4 x [i=41, i=57]
1 x [i=42, i=56]
1 x [i=43, i=56]
3 x [i=44, i=58]
1 x [i=45, i=54]
3 x [i=45, i=55]
1 x [i=45, i=60]
3 x [i=46, i=53]
3 x [i=47, i=51]
1 x [i=48, i=50]
2 x [i=48, i=52]
1 x [i=49, i=49]
1 x [i=50, i=51]
2 x [i=50, i=53]
